p cnf 40	2222
1	3	5	0
-1	-3	-5	0
1	3	6	0
-1	-3	-6	0
1	3	7	0
-1	-3	-7	0
1	3	9	0
-1	-3	-9	0
1	3	14	0
-1	-3	-14	0
1	3	20	0
-1	-3	-20	0
1	3	22	0
-1	-3	-22	0
1	3	25	0
-1	-3	-25	0
1	3	28	0
-1	-3	-28	0
1	3	29	0
-1	-3	-29	0
1	3	30	0
-1	-3	-30	0
1	3	33	0
-1	-3	-33	0
1	3	34	0
-1	-3	-34	0
1	3	37	0
-1	-3	-37	0
1	3	39	0
-1	-3	-39	0
1	5	6	0
-1	-5	-6	0
1	5	14	0
-1	-5	-14	0
1	5	16	0
-1	-5	-16	0
1	5	17	0
-1	-5	-17	0
1	5	19	0
-1	-5	-19	0
1	5	25	0
-1	-5	-25	0
1	5	27	0
-1	-5	-27	0
1	5	30	0
-1	-5	-30	0
1	5	31	0
-1	-5	-31	0
1	5	33	0
-1	-5	-33	0
1	5	39	0
-1	-5	-39	0
1	6	9	0
-1	-6	-9	0
1	6	14	0
-1	-6	-14	0
1	6	16	0
-1	-6	-16	0
1	6	17	0
-1	-6	-17	0
1	6	20	0
-1	-6	-20	0
1	6	22	0
-1	-6	-22	0
1	6	25	0
-1	-6	-25	0
1	6	28	0
-1	-6	-28	0
1	6	29	0
-1	-6	-29	0
1	6	33	0
-1	-6	-33	0
1	6	34	0
-1	-6	-34	0
1	6	37	0
-1	-6	-37	0
1	6	38	0
-1	-6	-38	0
1	6	39	0
-1	-6	-39	0
1	7	9	0
-1	-7	-9	0
1	7	16	0
-1	-7	-16	0
1	7	22	0
-1	-7	-22	0
1	7	29	0
-1	-7	-29	0
1	7	37	0
-1	-7	-37	0
1	7	39	0
-1	-7	-39	0
1	9	19	0
-1	-9	-19	0
1	9	20	0
-1	-9	-20	0
1	9	28	0
-1	-9	-28	0
1	9	29	0
-1	-9	-29	0
1	9	31	0
-1	-9	-31	0
1	9	34	0
-1	-9	-34	0
1	9	39	0
-1	-9	-39	0
1	14	16	0
-1	-14	-16	0
1	14	20	0
-1	-14	-20	0
1	14	25	0
-1	-14	-25	0
1	14	27	0
-1	-14	-27	0
1	14	29	0
-1	-14	-29	0
1	14	30	0
-1	-14	-30	0
1	14	31	0
-1	-14	-31	0
1	14	33	0
-1	-14	-33	0
1	16	25	0
-1	-16	-25	0
1	16	27	0
-1	-16	-27	0
1	16	33	0
-1	-16	-33	0
1	16	34	0
-1	-16	-34	0
1	16	38	0
-1	-16	-38	0
1	16	39	0
-1	-16	-39	0
1	17	20	0
-1	-17	-20	0
1	17	25	0
-1	-17	-25	0
1	17	27	0
-1	-17	-27	0
1	17	30	0
-1	-17	-30	0
1	17	31	0
-1	-17	-31	0
1	17	34	0
-1	-17	-34	0
1	19	22	0
-1	-19	-22	0
1	19	31	0
-1	-19	-31	0
1	19	34	0
-1	-19	-34	0
1	19	37	0
-1	-19	-37	0
1	20	25	0
-1	-20	-25	0
1	20	34	0
-1	-20	-34	0
1	21	22	0
-1	-21	-22	0
1	21	27	0
-1	-21	-27	0
1	21	28	0
-1	-21	-28	0
1	21	30	0
-1	-21	-30	0
1	21	33	0
-1	-21	-33	0
1	21	39	0
-1	-21	-39	0
1	22	30	0
-1	-22	-30	0
1	22	34	0
-1	-22	-34	0
1	22	37	0
-1	-22	-37	0
1	22	38	0
-1	-22	-38	0
1	25	28	0
-1	-25	-28	0
1	25	30	0
-1	-25	-30	0
1	25	31	0
-1	-25	-31	0
1	25	34	0
-1	-25	-34	0
1	25	37	0
-1	-25	-37	0
1	25	38	0
-1	-25	-38	0
1	27	33	0
-1	-27	-33	0
1	27	39	0
-1	-27	-39	0
1	28	31	0
-1	-28	-31	0
1	28	33	0
-1	-28	-33	0
1	28	37	0
-1	-28	-37	0
1	29	30	0
-1	-29	-30	0
1	29	33	0
-1	-29	-33	0
1	29	37	0
-1	-29	-37	0
1	30	33	0
-1	-30	-33	0
1	30	34	0
-1	-30	-34	0
1	30	38	0
-1	-30	-38	0
1	30	39	0
-1	-30	-39	0
1	31	38	0
-1	-31	-38	0
1	33	37	0
-1	-33	-37	0
1	33	38	0
-1	-33	-38	0
1	33	39	0
-1	-33	-39	0
1	34	37	0
-1	-34	-37	0
1	34	38	0
-1	-34	-38	0
1	37	38	0
-1	-37	-38	0
1	37	39	0
-1	-37	-39	0
1	38	39	0
-1	-38	-39	0
2	4	6	0
-2	-4	-6	0
2	4	13	0
-2	-4	-13	0
2	4	14	0
-2	-4	-14	0
2	4	15	0
-2	-4	-15	0
2	4	19	0
-2	-4	-19	0
2	4	20	0
-2	-4	-20	0
2	4	23	0
-2	-4	-23	0
2	4	37	0
-2	-4	-37	0
2	5	6	0
-2	-5	-6	0
2	5	10	0
-2	-5	-10	0
2	5	13	0
-2	-5	-13	0
2	5	14	0
-2	-5	-14	0
2	5	15	0
-2	-5	-15	0
2	5	17	0
-2	-5	-17	0
2	5	18	0
-2	-5	-18	0
2	5	19	0
-2	-5	-19	0
2	5	23	0
-2	-5	-23	0
2	5	25	0
-2	-5	-25	0
2	5	30	0
-2	-5	-30	0
2	5	32	0
-2	-5	-32	0
2	5	33	0
-2	-5	-33	0
2	5	39	0
-2	-5	-39	0
2	6	9	0
-2	-6	-9	0
2	6	10	0
-2	-6	-10	0
2	6	14	0
-2	-6	-14	0
2	6	15	0
-2	-6	-15	0
2	6	17	0
-2	-6	-17	0
2	6	20	0
-2	-6	-20	0
2	6	23	0
-2	-6	-23	0
2	6	25	0
-2	-6	-25	0
2	6	33	0
-2	-6	-33	0
2	6	34	0
-2	-6	-34	0
2	6	37	0
-2	-6	-37	0
2	6	38	0
-2	-6	-38	0
2	6	39	0
-2	-6	-39	0
2	9	10	0
-2	-9	-10	0
2	9	13	0
-2	-9	-13	0
2	9	19	0
-2	-9	-19	0
2	9	20	0
-2	-9	-20	0
2	9	23	0
-2	-9	-23	0
2	9	32	0
-2	-9	-32	0
2	9	34	0
-2	-9	-34	0
2	9	39	0
-2	-9	-39	0
2	10	15	0
-2	-10	-15	0
2	10	17	0
-2	-10	-17	0
2	10	18	0
-2	-10	-18	0
2	10	19	0
-2	-10	-19	0
2	10	23	0
-2	-10	-23	0
2	10	25	0
-2	-10	-25	0
2	10	37	0
-2	-10	-37	0
2	13	18	0
-2	-13	-18	0
2	13	20	0
-2	-13	-20	0
2	13	23	0
-2	-13	-23	0
2	14	15	0
-2	-14	-15	0
2	14	20	0
-2	-14	-20	0
2	14	25	0
-2	-14	-25	0
2	14	30	0
-2	-14	-30	0
2	14	32	0
-2	-14	-32	0
2	14	33	0
-2	-14	-33	0
2	15	18	0
-2	-15	-18	0
2	15	20	0
-2	-15	-20	0
2	15	32	0
-2	-15	-32	0
2	15	37	0
-2	-15	-37	0
2	15	38	0
-2	-15	-38	0
2	17	18	0
-2	-17	-18	0
2	17	20	0
-2	-17	-20	0
2	17	25	0
-2	-17	-25	0
2	17	30	0
-2	-17	-30	0
2	17	34	0
-2	-17	-34	0
2	18	23	0
-2	-18	-23	0
2	18	25	0
-2	-18	-25	0
2	18	30	0
-2	-18	-30	0
2	18	33	0
-2	-18	-33	0
2	18	37	0
-2	-18	-37	0
2	18	38	0
-2	-18	-38	0
2	18	39	0
-2	-18	-39	0
2	19	23	0
-2	-19	-23	0
2	19	34	0
-2	-19	-34	0
2	19	37	0
-2	-19	-37	0
2	20	25	0
-2	-20	-25	0
2	20	32	0
-2	-20	-32	0
2	20	34	0
-2	-20	-34	0
2	23	25	0
-2	-23	-25	0
2	23	32	0
-2	-23	-32	0
2	23	34	0
-2	-23	-34	0
2	23	39	0
-2	-23	-39	0
2	25	30	0
-2	-25	-30	0
2	25	32	0
-2	-25	-32	0
2	25	34	0
-2	-25	-34	0
2	25	37	0
-2	-25	-37	0
2	25	38	0
-2	-25	-38	0
2	30	32	0
-2	-30	-32	0
2	30	33	0
-2	-30	-33	0
2	30	34	0
-2	-30	-34	0
2	30	38	0
-2	-30	-38	0
2	30	39	0
-2	-30	-39	0
2	32	33	0
-2	-32	-33	0
2	32	34	0
-2	-32	-34	0
2	32	38	0
-2	-32	-38	0
2	32	39	0
-2	-32	-39	0
2	33	37	0
-2	-33	-37	0
2	33	38	0
-2	-33	-38	0
2	33	39	0
-2	-33	-39	0
2	34	37	0
-2	-34	-37	0
2	34	38	0
-2	-34	-38	0
2	37	38	0
-2	-37	-38	0
2	37	39	0
-2	-37	-39	0
2	38	39	0
-2	-38	-39	0
3	5	6	0
-3	-5	-6	0
3	5	8	0
-3	-5	-8	0
3	5	10	0
-3	-5	-10	0
3	5	11	0
-3	-5	-11	0
3	5	14	0
-3	-5	-14	0
3	5	15	0
-3	-5	-15	0
3	5	18	0
-3	-5	-18	0
3	5	23	0
-3	-5	-23	0
3	5	24	0
-3	-5	-24	0
3	5	25	0
-3	-5	-25	0
3	5	30	0
-3	-5	-30	0
3	5	33	0
-3	-5	-33	0
3	5	39	0
-3	-5	-39	0
3	6	9	0
-3	-6	-9	0
3	6	10	0
-3	-6	-10	0
3	6	14	0
-3	-6	-14	0
3	6	15	0
-3	-6	-15	0
3	6	20	0
-3	-6	-20	0
3	6	22	0
-3	-6	-22	0
3	6	23	0
-3	-6	-23	0
3	6	25	0
-3	-6	-25	0
3	6	28	0
-3	-6	-28	0
3	6	29	0
-3	-6	-29	0
3	6	33	0
-3	-6	-33	0
3	6	34	0
-3	-6	-34	0
3	6	35	0
-3	-6	-35	0
3	6	37	0
-3	-6	-37	0
3	6	39	0
-3	-6	-39	0
3	7	9	0
-3	-7	-9	0
3	7	10	0
-3	-7	-10	0
3	7	11	0
-3	-7	-11	0
3	7	15	0
-3	-7	-15	0
3	7	22	0
-3	-7	-22	0
3	7	23	0
-3	-7	-23	0
3	7	24	0
-3	-7	-24	0
3	7	29	0
-3	-7	-29	0
3	7	35	0
-3	-7	-35	0
3	7	37	0
-3	-7	-37	0
3	7	39	0
-3	-7	-39	0
3	8	9	0
-3	-8	-9	0
3	8	11	0
-3	-8	-11	0
3	8	14	0
-3	-8	-14	0
3	8	20	0
-3	-8	-20	0
3	8	22	0
-3	-8	-22	0
3	8	24	0
-3	-8	-24	0
3	8	30	0
-3	-8	-30	0
3	8	33	0
-3	-8	-33	0
3	8	34	0
-3	-8	-34	0
3	9	10	0
-3	-9	-10	0
3	9	20	0
-3	-9	-20	0
3	9	23	0
-3	-9	-23	0
3	9	24	0
-3	-9	-24	0
3	9	28	0
-3	-9	-28	0
3	9	29	0
-3	-9	-29	0
3	9	34	0
-3	-9	-34	0
3	9	35	0
-3	-9	-35	0
3	9	39	0
-3	-9	-39	0
3	10	15	0
-3	-10	-15	0
3	10	18	0
-3	-10	-18	0
3	10	23	0
-3	-10	-23	0
3	10	24	0
-3	-10	-24	0
3	10	25	0
-3	-10	-25	0
3	10	28	0
-3	-10	-28	0
3	10	29	0
-3	-10	-29	0
3	10	35	0
-3	-10	-35	0
3	10	37	0
-3	-10	-37	0
3	11	18	0
-3	-11	-18	0
3	11	22	0
-3	-11	-22	0
3	11	25	0
-3	-11	-25	0
3	11	28	0
-3	-11	-28	0
3	11	29	0
-3	-11	-29	0
3	11	30	0
-3	-11	-30	0
3	11	37	0
-3	-11	-37	0
3	11	39	0
-3	-11	-39	0
3	14	15	0
-3	-14	-15	0
3	14	20	0
-3	-14	-20	0
3	14	25	0
-3	-14	-25	0
3	14	29	0
-3	-14	-29	0
3	14	30	0
-3	-14	-30	0
3	14	33	0
-3	-14	-33	0
3	14	35	0
-3	-14	-35	0
3	15	18	0
-3	-15	-18	0
3	15	20	0
-3	-15	-20	0
3	15	24	0
-3	-15	-24	0
3	15	28	0
-3	-15	-28	0
3	15	29	0
-3	-15	-29	0
3	15	35	0
-3	-15	-35	0
3	15	37	0
-3	-15	-37	0
3	18	23	0
-3	-18	-23	0
3	18	24	0
-3	-18	-24	0
3	18	25	0
-3	-18	-25	0
3	18	30	0
-3	-18	-30	0
3	18	33	0
-3	-18	-33	0
3	18	37	0
-3	-18	-37	0
3	18	39	0
-3	-18	-39	0
3	20	25	0
-3	-20	-25	0
3	20	34	0
-3	-20	-34	0
3	20	35	0
-3	-20	-35	0
3	22	23	0
-3	-22	-23	0
3	22	30	0
-3	-22	-30	0
3	22	34	0
-3	-22	-34	0
3	22	35	0
-3	-22	-35	0
3	22	37	0
-3	-22	-37	0
3	23	25	0
-3	-23	-25	0
3	23	34	0
-3	-23	-34	0
3	23	35	0
-3	-23	-35	0
3	23	39	0
-3	-23	-39	0
3	24	29	0
-3	-24	-29	0
3	24	30	0
-3	-24	-30	0
3	24	33	0
-3	-24	-33	0
3	25	28	0
-3	-25	-28	0
3	25	30	0
-3	-25	-30	0
3	25	34	0
-3	-25	-34	0
3	25	35	0
-3	-25	-35	0
3	25	37	0
-3	-25	-37	0
3	28	33	0
-3	-28	-33	0
3	28	35	0
-3	-28	-35	0
3	28	37	0
-3	-28	-37	0
3	29	30	0
-3	-29	-30	0
3	29	33	0
-3	-29	-33	0
3	29	35	0
-3	-29	-35	0
3	29	37	0
-3	-29	-37	0
3	30	33	0
-3	-30	-33	0
3	30	34	0
-3	-30	-34	0
3	30	35	0
-3	-30	-35	0
3	30	39	0
-3	-30	-39	0
3	33	35	0
-3	-33	-35	0
3	33	37	0
-3	-33	-37	0
3	33	39	0
-3	-33	-39	0
3	34	35	0
-3	-34	-35	0
3	34	37	0
-3	-34	-37	0
3	35	37	0
-3	-35	-37	0
3	37	39	0
-3	-37	-39	0
4	6	14	0
-4	-6	-14	0
4	6	15	0
-4	-6	-15	0
4	6	20	0
-4	-6	-20	0
4	6	23	0
-4	-6	-23	0
4	6	28	0
-4	-6	-28	0
4	6	37	0
-4	-6	-37	0
4	11	19	0
-4	-11	-19	0
4	11	28	0
-4	-11	-28	0
4	11	37	0
-4	-11	-37	0
4	13	20	0
-4	-13	-20	0
4	13	21	0
-4	-13	-21	0
4	13	23	0
-4	-13	-23	0
4	13	28	0
-4	-13	-28	0
4	13	31	0
-4	-13	-31	0
4	14	15	0
-4	-14	-15	0
4	14	20	0
-4	-14	-20	0
4	14	31	0
-4	-14	-31	0
4	14	36	0
-4	-14	-36	0
4	15	20	0
-4	-15	-20	0
4	15	24	0
-4	-15	-24	0
4	15	28	0
-4	-15	-28	0
4	15	37	0
-4	-15	-37	0
4	19	23	0
-4	-19	-23	0
4	19	24	0
-4	-19	-24	0
4	19	31	0
-4	-19	-31	0
4	19	37	0
-4	-19	-37	0
4	21	23	0
-4	-21	-23	0
4	21	24	0
-4	-21	-24	0
4	21	28	0
-4	-21	-28	0
4	21	36	0
-4	-21	-36	0
4	23	36	0
-4	-23	-36	0
4	24	36	0
-4	-24	-36	0
4	28	31	0
-4	-28	-31	0
4	28	36	0
-4	-28	-36	0
4	28	37	0
-4	-28	-37	0
5	6	10	0
-5	-6	-10	0
5	6	14	0
-5	-6	-14	0
5	6	15	0
-5	-6	-15	0
5	6	16	0
-5	-6	-16	0
5	6	17	0
-5	-6	-17	0
5	6	23	0
-5	-6	-23	0
5	6	25	0
-5	-6	-25	0
5	6	33	0
-5	-6	-33	0
5	6	39	0
-5	-6	-39	0
5	8	11	0
-5	-8	-11	0
5	8	14	0
-5	-8	-14	0
5	8	17	0
-5	-8	-17	0
5	8	24	0
-5	-8	-24	0
5	8	26	0
-5	-8	-26	0
5	8	27	0
-5	-8	-27	0
5	8	30	0
-5	-8	-30	0
5	8	31	0
-5	-8	-31	0
5	8	32	0
-5	-8	-32	0
5	8	33	0
-5	-8	-33	0
5	10	15	0
-5	-10	-15	0
5	10	16	0
-5	-10	-16	0
5	10	17	0
-5	-10	-17	0
5	10	18	0
-5	-10	-18	0
5	10	19	0
-5	-10	-19	0
5	10	23	0
-5	-10	-23	0
5	10	24	0
-5	-10	-24	0
5	10	25	0
-5	-10	-25	0
5	10	26	0
-5	-10	-26	0
5	10	27	0
-5	-10	-27	0
5	11	16	0
-5	-11	-16	0
5	11	18	0
-5	-11	-18	0
5	11	19	0
-5	-11	-19	0
5	11	25	0
-5	-11	-25	0
5	11	26	0
-5	-11	-26	0
5	11	27	0
-5	-11	-27	0
5	11	30	0
-5	-11	-30	0
5	11	32	0
-5	-11	-32	0
5	11	39	0
-5	-11	-39	0
5	13	16	0
-5	-13	-16	0
5	13	18	0
-5	-13	-18	0
5	13	23	0
-5	-13	-23	0
5	13	26	0
-5	-13	-26	0
5	13	31	0
-5	-13	-31	0
5	14	15	0
-5	-14	-15	0
5	14	16	0
-5	-14	-16	0
5	14	25	0
-5	-14	-25	0
5	14	26	0
-5	-14	-26	0
5	14	27	0
-5	-14	-27	0
5	14	30	0
-5	-14	-30	0
5	14	31	0
-5	-14	-31	0
5	14	32	0
-5	-14	-32	0
5	14	33	0
-5	-14	-33	0
5	15	18	0
-5	-15	-18	0
5	15	24	0
-5	-15	-24	0
5	15	32	0
-5	-15	-32	0
5	16	18	0
-5	-16	-18	0
5	16	23	0
-5	-16	-23	0
5	16	25	0
-5	-16	-25	0
5	16	27	0
-5	-16	-27	0
5	16	32	0
-5	-16	-32	0
5	16	33	0
-5	-16	-33	0
5	16	39	0
-5	-16	-39	0
5	17	18	0
-5	-17	-18	0
5	17	24	0
-5	-17	-24	0
5	17	25	0
-5	-17	-25	0
5	17	26	0
-5	-17	-26	0
5	17	27	0
-5	-17	-27	0
5	17	30	0
-5	-17	-30	0
5	17	31	0
-5	-17	-31	0
5	18	23	0
-5	-18	-23	0
5	18	24	0
-5	-18	-24	0
5	18	25	0
-5	-18	-25	0
5	18	30	0
-5	-18	-30	0
5	18	33	0
-5	-18	-33	0
5	18	39	0
-5	-18	-39	0
5	19	23	0
-5	-19	-23	0
5	19	24	0
-5	-19	-24	0
5	19	31	0
-5	-19	-31	0
5	23	25	0
-5	-23	-25	0
5	23	26	0
-5	-23	-26	0
5	23	27	0
-5	-23	-27	0
5	23	32	0
-5	-23	-32	0
5	23	39	0
-5	-23	-39	0
5	24	26	0
-5	-24	-26	0
5	24	27	0
-5	-24	-27	0
5	24	30	0
-5	-24	-30	0
5	24	33	0
-5	-24	-33	0
5	25	30	0
-5	-25	-30	0
5	25	31	0
-5	-25	-31	0
5	25	32	0
-5	-25	-32	0
5	26	27	0
-5	-26	-27	0
5	26	30	0
-5	-26	-30	0
5	26	31	0
-5	-26	-31	0
5	26	32	0
-5	-26	-32	0
5	26	33	0
-5	-26	-33	0
5	27	32	0
-5	-27	-32	0
5	27	33	0
-5	-27	-33	0
5	27	39	0
-5	-27	-39	0
5	30	32	0
-5	-30	-32	0
5	30	33	0
-5	-30	-33	0
5	30	39	0
-5	-30	-39	0
5	31	32	0
-5	-31	-32	0
5	32	33	0
-5	-32	-33	0
5	32	39	0
-5	-32	-39	0
5	33	39	0
-5	-33	-39	0
6	9	10	0
-6	-9	-10	0
6	9	20	0
-6	-9	-20	0
6	9	23	0
-6	-9	-23	0
6	9	28	0
-6	-9	-28	0
6	9	29	0
-6	-9	-29	0
6	9	34	0
-6	-9	-34	0
6	9	35	0
-6	-9	-35	0
6	9	39	0
-6	-9	-39	0
6	10	15	0
-6	-10	-15	0
6	10	16	0
-6	-10	-16	0
6	10	17	0
-6	-10	-17	0
6	10	23	0
-6	-10	-23	0
6	10	25	0
-6	-10	-25	0
6	10	28	0
-6	-10	-28	0
6	10	29	0
-6	-10	-29	0
6	10	35	0
-6	-10	-35	0
6	10	37	0
-6	-10	-37	0
6	12	22	0
-6	-12	-22	0
6	12	23	0
-6	-12	-23	0
6	12	25	0
-6	-12	-25	0
6	12	28	0
-6	-12	-28	0
6	12	29	0
-6	-12	-29	0
6	12	37	0
-6	-12	-37	0
6	14	15	0
-6	-14	-15	0
6	14	16	0
-6	-14	-16	0
6	14	20	0
-6	-14	-20	0
6	14	25	0
-6	-14	-25	0
6	14	29	0
-6	-14	-29	0
6	14	33	0
-6	-14	-33	0
6	14	35	0
-6	-14	-35	0
6	15	20	0
-6	-15	-20	0
6	15	28	0
-6	-15	-28	0
6	15	29	0
-6	-15	-29	0
6	15	35	0
-6	-15	-35	0
6	15	37	0
-6	-15	-37	0
6	15	38	0
-6	-15	-38	0
6	16	23	0
-6	-16	-23	0
6	16	25	0
-6	-16	-25	0
6	16	33	0
-6	-16	-33	0
6	16	34	0
-6	-16	-34	0
6	16	38	0
-6	-16	-38	0
6	16	39	0
-6	-16	-39	0
6	17	20	0
-6	-17	-20	0
6	17	25	0
-6	-17	-25	0
6	17	34	0
-6	-17	-34	0
6	20	25	0
-6	-20	-25	0
6	20	34	0
-6	-20	-34	0
6	20	35	0
-6	-20	-35	0
6	22	23	0
-6	-22	-23	0
6	22	34	0
-6	-22	-34	0
6	22	35	0
-6	-22	-35	0
6	22	37	0
-6	-22	-37	0
6	22	38	0
-6	-22	-38	0
6	23	25	0
-6	-23	-25	0
6	23	34	0
-6	-23	-34	0
6	23	35	0
-6	-23	-35	0
6	23	39	0
-6	-23	-39	0
6	25	28	0
-6	-25	-28	0
6	25	34	0
-6	-25	-34	0
6	25	35	0
-6	-25	-35	0
6	25	37	0
-6	-25	-37	0
6	25	38	0
-6	-25	-38	0
6	28	33	0
-6	-28	-33	0
6	28	35	0
-6	-28	-35	0
6	28	37	0
-6	-28	-37	0
6	29	33	0
-6	-29	-33	0
6	29	35	0
-6	-29	-35	0
6	29	37	0
-6	-29	-37	0
6	33	35	0
-6	-33	-35	0
6	33	37	0
-6	-33	-37	0
6	33	38	0
-6	-33	-38	0
6	33	39	0
-6	-33	-39	0
6	34	35	0
-6	-34	-35	0
6	34	37	0
-6	-34	-37	0
6	34	38	0
-6	-34	-38	0
6	35	37	0
-6	-35	-37	0
6	37	38	0
-6	-37	-38	0
6	37	39	0
-6	-37	-39	0
6	38	39	0
-6	-38	-39	0
7	9	10	0
-7	-9	-10	0
7	9	13	0
-7	-9	-13	0
7	9	23	0
-7	-9	-23	0
7	9	24	0
-7	-9	-24	0
7	9	29	0
-7	-9	-29	0
7	9	35	0
-7	-9	-35	0
7	9	36	0
-7	-9	-36	0
7	9	39	0
-7	-9	-39	0
7	10	15	0
-7	-10	-15	0
7	10	16	0
-7	-10	-16	0
7	10	23	0
-7	-10	-23	0
7	10	24	0
-7	-10	-24	0
7	10	29	0
-7	-10	-29	0
7	10	35	0
-7	-10	-35	0
7	10	37	0
-7	-10	-37	0
7	11	12	0
-7	-11	-12	0
7	11	16	0
-7	-11	-16	0
7	11	22	0
-7	-11	-22	0
7	11	29	0
-7	-11	-29	0
7	11	37	0
-7	-11	-37	0
7	11	39	0
-7	-11	-39	0
7	12	13	0
-7	-12	-13	0
7	12	22	0
-7	-12	-22	0
7	12	23	0
-7	-12	-23	0
7	12	29	0
-7	-12	-29	0
7	12	36	0
-7	-12	-36	0
7	12	37	0
-7	-12	-37	0
7	13	16	0
-7	-13	-16	0
7	13	23	0
-7	-13	-23	0
7	13	29	0
-7	-13	-29	0
7	13	35	0
-7	-13	-35	0
7	15	24	0
-7	-15	-24	0
7	15	29	0
-7	-15	-29	0
7	15	35	0
-7	-15	-35	0
7	15	37	0
-7	-15	-37	0
7	16	23	0
-7	-16	-23	0
7	16	36	0
-7	-16	-36	0
7	16	39	0
-7	-16	-39	0
7	22	23	0
-7	-22	-23	0
7	22	35	0
-7	-22	-35	0
7	22	37	0
-7	-22	-37	0
7	23	35	0
-7	-23	-35	0
7	23	36	0
-7	-23	-36	0
7	23	39	0
-7	-23	-39	0
7	24	29	0
-7	-24	-29	0
7	24	36	0
-7	-24	-36	0
7	29	35	0
-7	-29	-35	0
7	29	37	0
-7	-29	-37	0
7	35	37	0
-7	-35	-37	0
7	37	39	0
-7	-37	-39	0
8	9	20	0
-8	-9	-20	0
8	9	24	0
-8	-9	-24	0
8	9	31	0
-8	-9	-31	0
8	9	32	0
-8	-9	-32	0
8	9	34	0
-8	-9	-34	0
8	11	22	0
-8	-11	-22	0
8	11	26	0
-8	-11	-26	0
8	11	27	0
-8	-11	-27	0
8	11	30	0
-8	-11	-30	0
8	11	32	0
-8	-11	-32	0
8	11	38	0
-8	-11	-38	0
8	14	20	0
-8	-14	-20	0
8	14	26	0
-8	-14	-26	0
8	14	27	0
-8	-14	-27	0
8	14	30	0
-8	-14	-30	0
8	14	31	0
-8	-14	-31	0
8	14	32	0
-8	-14	-32	0
8	14	33	0
-8	-14	-33	0
8	17	20	0
-8	-17	-20	0
8	17	24	0
-8	-17	-24	0
8	17	26	0
-8	-17	-26	0
8	17	27	0
-8	-17	-27	0
8	17	30	0
-8	-17	-30	0
8	17	31	0
-8	-17	-31	0
8	17	34	0
-8	-17	-34	0
8	20	26	0
-8	-20	-26	0
8	20	32	0
-8	-20	-32	0
8	20	34	0
-8	-20	-34	0
8	21	22	0
-8	-21	-22	0
8	21	24	0
-8	-21	-24	0
8	21	27	0
-8	-21	-27	0
8	21	30	0
-8	-21	-30	0
8	21	33	0
-8	-21	-33	0
8	22	30	0
-8	-22	-30	0
8	22	34	0
-8	-22	-34	0
8	22	38	0
-8	-22	-38	0
8	24	26	0
-8	-24	-26	0
8	24	27	0
-8	-24	-27	0
8	24	30	0
-8	-24	-30	0
8	24	33	0
-8	-24	-33	0
8	26	27	0
-8	-26	-27	0
8	26	30	0
-8	-26	-30	0
8	26	31	0
-8	-26	-31	0
8	26	32	0
-8	-26	-32	0
8	26	33	0
-8	-26	-33	0
8	27	32	0
-8	-27	-32	0
8	27	33	0
-8	-27	-33	0
8	30	32	0
-8	-30	-32	0
8	30	33	0
-8	-30	-33	0
8	30	34	0
-8	-30	-34	0
8	30	38	0
-8	-30	-38	0
8	31	32	0
-8	-31	-32	0
8	31	38	0
-8	-31	-38	0
8	32	33	0
-8	-32	-33	0
8	32	34	0
-8	-32	-34	0
8	32	38	0
-8	-32	-38	0
8	33	38	0
-8	-33	-38	0
8	34	38	0
-8	-34	-38	0
9	10	19	0
-9	-10	-19	0
9	10	23	0
-9	-10	-23	0
9	10	24	0
-9	-10	-24	0
9	10	28	0
-9	-10	-28	0
9	10	29	0
-9	-10	-29	0
9	10	35	0
-9	-10	-35	0
9	13	20	0
-9	-13	-20	0
9	13	23	0
-9	-13	-23	0
9	13	28	0
-9	-13	-28	0
9	13	29	0
-9	-13	-29	0
9	13	31	0
-9	-13	-31	0
9	13	35	0
-9	-13	-35	0
9	19	23	0
-9	-19	-23	0
9	19	24	0
-9	-19	-24	0
9	19	31	0
-9	-19	-31	0
9	19	34	0
-9	-19	-34	0
9	20	32	0
-9	-20	-32	0
9	20	34	0
-9	-20	-34	0
9	20	35	0
-9	-20	-35	0
9	23	32	0
-9	-23	-32	0
9	23	34	0
-9	-23	-34	0
9	23	35	0
-9	-23	-35	0
9	23	36	0
-9	-23	-36	0
9	23	39	0
-9	-23	-39	0
9	24	29	0
-9	-24	-29	0
9	24	36	0
-9	-24	-36	0
9	28	31	0
-9	-28	-31	0
9	28	32	0
-9	-28	-32	0
9	28	35	0
-9	-28	-35	0
9	28	36	0
-9	-28	-36	0
9	29	32	0
-9	-29	-32	0
9	29	35	0
-9	-29	-35	0
9	31	32	0
-9	-31	-32	0
9	32	34	0
-9	-32	-34	0
9	32	35	0
-9	-32	-35	0
9	32	36	0
-9	-32	-36	0
9	32	39	0
-9	-32	-39	0
9	34	35	0
-9	-34	-35	0
9	34	36	0
-9	-34	-36	0
10	15	18	0
-10	-15	-18	0
10	15	24	0
-10	-15	-24	0
10	15	28	0
-10	-15	-28	0
10	15	29	0
-10	-15	-29	0
10	15	35	0
-10	-15	-35	0
10	15	37	0
-10	-15	-37	0
10	16	18	0
-10	-16	-18	0
10	16	23	0
-10	-16	-23	0
10	16	25	0
-10	-16	-25	0
10	16	27	0
-10	-16	-27	0
10	17	18	0
-10	-17	-18	0
10	17	24	0
-10	-17	-24	0
10	17	25	0
-10	-17	-25	0
10	17	26	0
-10	-17	-26	0
10	17	27	0
-10	-17	-27	0
10	18	23	0
-10	-18	-23	0
10	18	24	0
-10	-18	-24	0
10	18	25	0
-10	-18	-25	0
10	18	37	0
-10	-18	-37	0
10	19	23	0
-10	-19	-23	0
10	19	24	0
-10	-19	-24	0
10	19	37	0
-10	-19	-37	0
10	23	25	0
-10	-23	-25	0
10	23	26	0
-10	-23	-26	0
10	23	27	0
-10	-23	-27	0
10	23	35	0
-10	-23	-35	0
10	24	26	0
-10	-24	-26	0
10	24	27	0
-10	-24	-27	0
10	24	29	0
-10	-24	-29	0
10	25	28	0
-10	-25	-28	0
10	25	35	0
-10	-25	-35	0
10	25	37	0
-10	-25	-37	0
10	26	27	0
-10	-26	-27	0
10	26	37	0
-10	-26	-37	0
10	28	35	0
-10	-28	-35	0
10	28	37	0
-10	-28	-37	0
10	29	35	0
-10	-29	-35	0
10	29	37	0
-10	-29	-37	0
10	35	37	0
-10	-35	-37	0
11	12	18	0
-11	-12	-18	0
11	12	19	0
-11	-12	-19	0
11	12	22	0
-11	-12	-22	0
11	12	25	0
-11	-12	-25	0
11	12	26	0
-11	-12	-26	0
11	12	27	0
-11	-12	-27	0
11	12	28	0
-11	-12	-28	0
11	12	29	0
-11	-12	-29	0
11	12	37	0
-11	-12	-37	0
11	16	18	0
-11	-16	-18	0
11	16	25	0
-11	-16	-25	0
11	16	27	0
-11	-16	-27	0
11	16	32	0
-11	-16	-32	0
11	16	38	0
-11	-16	-38	0
11	16	39	0
-11	-16	-39	0
11	18	25	0
-11	-18	-25	0
11	18	30	0
-11	-18	-30	0
11	18	37	0
-11	-18	-37	0
11	18	38	0
-11	-18	-38	0
11	18	39	0
-11	-18	-39	0
11	19	22	0
-11	-19	-22	0
11	19	37	0
-11	-19	-37	0
11	22	30	0
-11	-22	-30	0
11	22	37	0
-11	-22	-37	0
11	22	38	0
-11	-22	-38	0
11	25	28	0
-11	-25	-28	0
11	25	30	0
-11	-25	-30	0
11	25	32	0
-11	-25	-32	0
11	25	37	0
-11	-25	-37	0
11	25	38	0
-11	-25	-38	0
11	26	27	0
-11	-26	-27	0
11	26	30	0
-11	-26	-30	0
11	26	32	0
-11	-26	-32	0
11	26	37	0
-11	-26	-37	0
11	27	32	0
-11	-27	-32	0
11	27	39	0
-11	-27	-39	0
11	28	32	0
-11	-28	-32	0
11	28	37	0
-11	-28	-37	0
11	29	30	0
-11	-29	-30	0
11	29	32	0
-11	-29	-32	0
11	29	37	0
-11	-29	-37	0
11	30	32	0
-11	-30	-32	0
11	30	38	0
-11	-30	-38	0
11	30	39	0
-11	-30	-39	0
11	32	38	0
-11	-32	-38	0
11	32	39	0
-11	-32	-39	0
11	37	38	0
-11	-37	-38	0
11	37	39	0
-11	-37	-39	0
11	38	39	0
-11	-38	-39	0
12	13	18	0
-12	-13	-18	0
12	13	23	0
-12	-13	-23	0
12	13	26	0
-12	-13	-26	0
12	13	28	0
-12	-13	-28	0
12	13	29	0
-12	-13	-29	0
12	18	23	0
-12	-18	-23	0
12	18	25	0
-12	-18	-25	0
12	18	37	0
-12	-18	-37	0
12	19	22	0
-12	-19	-22	0
12	19	23	0
-12	-19	-23	0
12	19	37	0
-12	-19	-37	0
12	22	23	0
-12	-22	-23	0
12	22	37	0
-12	-22	-37	0
12	23	25	0
-12	-23	-25	0
12	23	26	0
-12	-23	-26	0
12	23	27	0
-12	-23	-27	0
12	23	36	0
-12	-23	-36	0
12	25	28	0
-12	-25	-28	0
12	25	36	0
-12	-25	-36	0
12	25	37	0
-12	-25	-37	0
12	26	27	0
-12	-26	-27	0
12	26	37	0
-12	-26	-37	0
12	27	36	0
-12	-27	-36	0
12	28	36	0
-12	-28	-36	0
12	28	37	0
-12	-28	-37	0
12	29	37	0
-12	-29	-37	0
13	16	18	0
-13	-16	-18	0
13	16	23	0
-13	-16	-23	0
13	18	23	0
-13	-18	-23	0
13	20	26	0
-13	-20	-26	0
13	20	35	0
-13	-20	-35	0
13	21	23	0
-13	-21	-23	0
13	21	28	0
-13	-21	-28	0
13	23	26	0
-13	-23	-26	0
13	23	35	0
-13	-23	-35	0
13	26	31	0
-13	-26	-31	0
13	28	31	0
-13	-28	-31	0
13	28	35	0
-13	-28	-35	0
13	29	35	0
-13	-29	-35	0
14	15	20	0
-14	-15	-20	0
14	15	29	0
-14	-15	-29	0
14	15	32	0
-14	-15	-32	0
14	15	35	0
-14	-15	-35	0
14	16	25	0
-14	-16	-25	0
14	16	27	0
-14	-16	-27	0
14	16	32	0
-14	-16	-32	0
14	16	33	0
-14	-16	-33	0
14	16	36	0
-14	-16	-36	0
14	20	25	0
-14	-20	-25	0
14	20	26	0
-14	-20	-26	0
14	20	32	0
-14	-20	-32	0
14	20	35	0
-14	-20	-35	0
14	25	30	0
-14	-25	-30	0
14	25	31	0
-14	-25	-31	0
14	25	32	0
-14	-25	-32	0
14	25	35	0
-14	-25	-35	0
14	25	36	0
-14	-25	-36	0
14	26	27	0
-14	-26	-27	0
14	26	30	0
-14	-26	-30	0
14	26	31	0
-14	-26	-31	0
14	26	32	0
-14	-26	-32	0
14	26	33	0
-14	-26	-33	0
14	27	32	0
-14	-27	-32	0
14	27	33	0
-14	-27	-33	0
14	27	36	0
-14	-27	-36	0
14	29	30	0
-14	-29	-30	0
14	29	32	0
-14	-29	-32	0
14	29	33	0
-14	-29	-33	0
14	29	35	0
-14	-29	-35	0
14	30	32	0
-14	-30	-32	0
14	30	33	0
-14	-30	-33	0
14	30	35	0
-14	-30	-35	0
14	30	36	0
-14	-30	-36	0
14	31	32	0
-14	-31	-32	0
14	32	33	0
-14	-32	-33	0
14	32	35	0
-14	-32	-35	0
14	32	36	0
-14	-32	-36	0
14	33	35	0
-14	-33	-35	0
15	18	24	0
-15	-18	-24	0
15	18	37	0
-15	-18	-37	0
15	18	38	0
-15	-18	-38	0
15	20	32	0
-15	-20	-32	0
15	20	35	0
-15	-20	-35	0
15	24	29	0
-15	-24	-29	0
15	28	32	0
-15	-28	-32	0
15	28	35	0
-15	-28	-35	0
15	28	37	0
-15	-28	-37	0
15	29	32	0
-15	-29	-32	0
15	29	35	0
-15	-29	-35	0
15	29	37	0
-15	-29	-37	0
15	32	35	0
-15	-32	-35	0
15	32	38	0
-15	-32	-38	0
15	35	37	0
-15	-35	-37	0
15	37	38	0
-15	-37	-38	0
16	18	23	0
-16	-18	-23	0
16	18	25	0
-16	-18	-25	0
16	18	33	0
-16	-18	-33	0
16	18	38	0
-16	-18	-38	0
16	18	39	0
-16	-18	-39	0
16	23	25	0
-16	-23	-25	0
16	23	27	0
-16	-23	-27	0
16	23	32	0
-16	-23	-32	0
16	23	34	0
-16	-23	-34	0
16	23	36	0
-16	-23	-36	0
16	23	39	0
-16	-23	-39	0
16	25	32	0
-16	-25	-32	0
16	25	34	0
-16	-25	-34	0
16	25	36	0
-16	-25	-36	0
16	25	38	0
-16	-25	-38	0
16	27	32	0
-16	-27	-32	0
16	27	33	0
-16	-27	-33	0
16	27	36	0
-16	-27	-36	0
16	27	39	0
-16	-27	-39	0
16	32	33	0
-16	-32	-33	0
16	32	34	0
-16	-32	-34	0
16	32	36	0
-16	-32	-36	0
16	32	38	0
-16	-32	-38	0
16	32	39	0
-16	-32	-39	0
16	33	38	0
-16	-33	-38	0
16	33	39	0
-16	-33	-39	0
16	34	36	0
-16	-34	-36	0
16	34	38	0
-16	-34	-38	0
16	38	39	0
-16	-38	-39	0
17	18	24	0
-17	-18	-24	0
17	18	25	0
-17	-18	-25	0
17	18	30	0
-17	-18	-30	0
17	20	25	0
-17	-20	-25	0
17	20	26	0
-17	-20	-26	0
17	20	34	0
-17	-20	-34	0
17	24	26	0
-17	-24	-26	0
17	24	27	0
-17	-24	-27	0
17	24	30	0
-17	-24	-30	0
17	24	36	0
-17	-24	-36	0
17	25	30	0
-17	-25	-30	0
17	25	31	0
-17	-25	-31	0
17	25	34	0
-17	-25	-34	0
17	25	36	0
-17	-25	-36	0
17	26	27	0
-17	-26	-27	0
17	26	30	0
-17	-26	-30	0
17	26	31	0
-17	-26	-31	0
17	27	36	0
-17	-27	-36	0
17	30	34	0
-17	-30	-34	0
17	30	36	0
-17	-30	-36	0
17	34	36	0
-17	-34	-36	0
18	23	25	0
-18	-23	-25	0
18	23	39	0
-18	-23	-39	0
18	24	30	0
-18	-24	-30	0
18	24	33	0
-18	-24	-33	0
18	25	30	0
-18	-25	-30	0
18	25	37	0
-18	-25	-37	0
18	25	38	0
-18	-25	-38	0
18	30	33	0
-18	-30	-33	0
18	30	38	0
-18	-30	-38	0
18	30	39	0
-18	-30	-39	0
18	33	37	0
-18	-33	-37	0
18	33	38	0
-18	-33	-38	0
18	33	39	0
-18	-33	-39	0
18	37	38	0
-18	-37	-38	0
18	37	39	0
-18	-37	-39	0
18	38	39	0
-18	-38	-39	0
19	22	23	0
-19	-22	-23	0
19	22	34	0
-19	-22	-34	0
19	22	37	0
-19	-22	-37	0
19	23	34	0
-19	-23	-34	0
19	34	37	0
-19	-34	-37	0
20	25	32	0
-20	-25	-32	0
20	25	34	0
-20	-25	-34	0
20	25	35	0
-20	-25	-35	0
20	26	32	0
-20	-26	-32	0
20	32	34	0
-20	-32	-34	0
20	32	35	0
-20	-32	-35	0
20	34	35	0
-20	-34	-35	0
21	22	23	0
-21	-22	-23	0
21	22	30	0
-21	-22	-30	0
21	23	27	0
-21	-23	-27	0
21	23	36	0
-21	-23	-36	0
21	23	39	0
-21	-23	-39	0
21	24	27	0
-21	-24	-27	0
21	24	30	0
-21	-24	-30	0
21	24	33	0
-21	-24	-33	0
21	24	36	0
-21	-24	-36	0
21	27	33	0
-21	-27	-33	0
21	27	36	0
-21	-27	-36	0
21	27	39	0
-21	-27	-39	0
21	28	33	0
-21	-28	-33	0
21	28	36	0
-21	-28	-36	0
21	30	33	0
-21	-30	-33	0
21	30	36	0
-21	-30	-36	0
21	30	39	0
-21	-30	-39	0
21	33	39	0
-21	-33	-39	0
22	23	34	0
-22	-23	-34	0
22	23	35	0
-22	-23	-35	0
22	30	34	0
-22	-30	-34	0
22	30	35	0
-22	-30	-35	0
22	30	38	0
-22	-30	-38	0
22	34	35	0
-22	-34	-35	0
22	34	37	0
-22	-34	-37	0
22	34	38	0
-22	-34	-38	0
22	35	37	0
-22	-35	-37	0
22	37	38	0
-22	-37	-38	0
23	25	32	0
-23	-25	-32	0
23	25	34	0
-23	-25	-34	0
23	25	35	0
-23	-25	-35	0
23	25	36	0
-23	-25	-36	0
23	26	27	0
-23	-26	-27	0
23	26	32	0
-23	-26	-32	0
23	27	32	0
-23	-27	-32	0
23	27	36	0
-23	-27	-36	0
23	27	39	0
-23	-27	-39	0
23	32	34	0
-23	-32	-34	0
23	32	35	0
-23	-32	-35	0
23	32	36	0
-23	-32	-36	0
23	32	39	0
-23	-32	-39	0
23	34	35	0
-23	-34	-35	0
23	34	36	0
-23	-34	-36	0
24	26	27	0
-24	-26	-27	0
24	26	30	0
-24	-26	-30	0
24	26	33	0
-24	-26	-33	0
24	27	33	0
-24	-27	-33	0
24	27	36	0
-24	-27	-36	0
24	29	30	0
-24	-29	-30	0
24	29	33	0
-24	-29	-33	0
24	30	33	0
-24	-30	-33	0
24	30	36	0
-24	-30	-36	0
25	28	31	0
-25	-28	-31	0
25	28	32	0
-25	-28	-32	0
25	28	35	0
-25	-28	-35	0
25	28	36	0
-25	-28	-36	0
25	28	37	0
-25	-28	-37	0
25	30	32	0
-25	-30	-32	0
25	30	34	0
-25	-30	-34	0
25	30	35	0
-25	-30	-35	0
25	30	36	0
-25	-30	-36	0
25	30	38	0
-25	-30	-38	0
25	31	32	0
-25	-31	-32	0
25	31	38	0
-25	-31	-38	0
25	32	34	0
-25	-32	-34	0
25	32	35	0
-25	-32	-35	0
25	32	36	0
-25	-32	-36	0
25	32	38	0
-25	-32	-38	0
25	34	35	0
-25	-34	-35	0
25	34	36	0
-25	-34	-36	0
25	34	37	0
-25	-34	-37	0
25	34	38	0
-25	-34	-38	0
25	35	37	0
-25	-35	-37	0
25	37	38	0
-25	-37	-38	0
26	27	32	0
-26	-27	-32	0
26	27	33	0
-26	-27	-33	0
26	30	32	0
-26	-30	-32	0
26	30	33	0
-26	-30	-33	0
26	31	32	0
-26	-31	-32	0
26	32	33	0
-26	-32	-33	0
26	33	37	0
-26	-33	-37	0
27	32	33	0
-27	-32	-33	0
27	32	36	0
-27	-32	-36	0
27	32	39	0
-27	-32	-39	0
27	33	39	0
-27	-33	-39	0
28	31	32	0
-28	-31	-32	0
28	32	33	0
-28	-32	-33	0
28	32	35	0
-28	-32	-35	0
28	32	36	0
-28	-32	-36	0
28	33	35	0
-28	-33	-35	0
28	33	37	0
-28	-33	-37	0
28	35	37	0
-28	-35	-37	0
29	30	32	0
-29	-30	-32	0
29	30	33	0
-29	-30	-33	0
29	30	35	0
-29	-30	-35	0
29	32	33	0
-29	-32	-33	0
29	32	35	0
-29	-32	-35	0
29	33	35	0
-29	-33	-35	0
29	33	37	0
-29	-33	-37	0
29	35	37	0
-29	-35	-37	0
30	32	33	0
-30	-32	-33	0
30	32	34	0
-30	-32	-34	0
30	32	35	0
-30	-32	-35	0
30	32	36	0
-30	-32	-36	0
30	32	38	0
-30	-32	-38	0
30	32	39	0
-30	-32	-39	0
30	33	35	0
-30	-33	-35	0
30	33	38	0
-30	-33	-38	0
30	33	39	0
-30	-33	-39	0
30	34	35	0
-30	-34	-35	0
30	34	36	0
-30	-34	-36	0
30	34	38	0
-30	-34	-38	0
30	38	39	0
-30	-38	-39	0
31	32	38	0
-31	-32	-38	0
32	33	35	0
-32	-33	-35	0
32	33	38	0
-32	-33	-38	0
32	33	39	0
-32	-33	-39	0
32	34	35	0
-32	-34	-35	0
32	34	36	0
-32	-34	-36	0
32	34	38	0
-32	-34	-38	0
32	38	39	0
-32	-38	-39	0
33	35	37	0
-33	-35	-37	0
33	37	38	0
-33	-37	-38	0
33	37	39	0
-33	-37	-39	0
33	38	39	0
-33	-38	-39	0
34	35	37	0
-34	-35	-37	0
34	37	38	0
-34	-37	-38	0
37	38	39	0
-37	-38	-39	0